Traveling Salesman Problem/TSP_generados/Aleatorio1620391357_15.tsp
NAME: Aleatorio1620391357_15.tsp
COMMENT: Randomly generated scenario
TYPE: TSP
DIMENSION: 15
EDGE_WEIGHT_TYPE: ATT
NODE_COORD_SECTION
1 39.97 10.17
2 40.6 18.92
3 49.45 4.16
4 27.42 28.41
5 42.86 35.28
6 11.85 49.82
7 22.63 24.8
8 14.56 13.19
9 18.17 19.25
10 8.67 14.72
11 1.78 44.21
12 19.72 34.42
13 19.55 13.79
14 27.88 21.2
15 49.42 19.51
