Traveling Salesman Problem/TSP_generados/Aleatorio1620391357_15.opt.tour
NAME: Aleatorio1620391357_15.opt.tour
COMMENT: Optimal solution for Aleatorio1620391357_15 (181.3518466390137)
TYPE: TOUR
DIMENSION: 15
TOUR_SECTION
1 2 14 7 9 13 8 10 11 6 12 4 5 15 3
-1
EOF
